[[12, 40, 32, 9, 25, 55, 50, 18, 24, 44, 3, 17, 51, 16, 63, 49, 23, 56, 43, 41, 42, 64, 22, 61, 28, 62, 73, 33, 6, 68, 2, 30, 74, 48, 21, 47], [69, 36, 71, 60, 70, 20, 37, 5, 15, 57, 13, 27, 29, 45, 4, 75, 76, 26, 67, 34, 52, 46, 7, 35, 8, 54, 19, 53, 14, 59, 11, 66, 65, 38, 31, 10, 58, 39, 72]]